\Problem name: 

Minimize
OBJROW: - y
Subject To
constr(0):  x + y >= 1
constr(1):  - x - z >= -1
constr(2):  x >= 1
constr(3):  y >= 1
Bounds
 0 <= x <= 1
 0 <= y <= 1
 0 <= z <= 1
Integers
x y z 
End
